
Gurobi 10.0.1 (linux64) logging started Mon Apr  1 02:41:26 2024

Set parameter LogFile to value "/data/optimi/optimi/kombadon/drings/SBahn/s-bahn-data/scripts/DeniseMA/processed/BGAS_BKW/RINS/BGAS_BKW_202403312232_random2_0.9.log"
Gurobi Optimizer version 10.0.1 build v10.0.1rc0 (linux64)

CPU model: Intel(R) Xeon(R) CPU E3-1270 v6 @ 3.80GHz, instruction set [SSE2|AVX|AVX2]
Thread count: 4 physical cores, 8 logical processors, using up to 8 threads

Optimize a model with 1967 rows, 1012 columns and 7145 nonzeros
Model fingerprint: 0xfe16bb13
Variable types: 411 continuous, 601 integer (170 binary)
Coefficient statistics:
  Matrix range     [1e+00, 4e+02]
  Objective range  [1e+00, 4e+02]
  Bounds range     [1e+00, 2e+02]
  RHS range        [1e+00, 5e+03]

User MIP start did not produce a new incumbent solution
User MIP start violates constraint objective_cutoff by 49.140000000

Presolve removed 1160 rows and 480 columns
Presolve time: 0.02s
Presolved: 807 rows, 532 columns, 3263 nonzeros
Variable types: 202 continuous, 330 integer (330 binary)

Root relaxation: objective 4.288000e+03, 271 iterations, 0.00 seconds (0.00 work units)
Another try with MIP start

    Nodes    |    Current Node    |     Objective Bounds      |     Work
 Expl Unexpl |  Obj  Depth IntInf | Incumbent    BestBd   Gap | It/Node Time

     0     0 4288.00000    0   29          - 4288.00000      -     -    0s
     0     0 4344.00000    0   48          - 4344.00000      -     -    0s
     0     0 4344.00000    0   48          - 4344.00000      -     -    0s
     0     0 4389.00000    0   44          - 4389.00000      -     -    0s
     0     0 4389.00000    0   42          - 4389.00000      -     -    0s
     0     0 4389.00000    0   14          - 4389.00000      -     -    0s
     0     0 4389.00000    0   20          - 4389.00000      -     -    0s
     0     0 4389.00000    0   22          - 4389.00000      -     -    0s
     0     0 4389.00000    0   44          - 4389.00000      -     -    0s
     0     0 4389.00000    0   29          - 4389.00000      -     -    0s
     0     0 4389.00000    0   25          - 4389.00000      -     -    0s
     0     2 4389.00000    0   24          - 4389.00000      -     -    0s
 29461 12679 4667.52294   25   81          - 4663.00000      -   8.6    5s

Cutting planes:
  Learned: 10
  Gomory: 38
  Cover: 6
  Implied bound: 5
  Projected implied bound: 2
  Clique: 2
  MIR: 29
  Flow cover: 46
  Zero half: 2
  Network: 1
  RLT: 16
  Relax-and-lift: 4

Explored 31347 nodes (291849 simplex iterations) in 6.28 seconds (3.74 work units)
Thread count was 8 (of 8 available processors)

Solution count 0

Model is infeasible
Best objective -, best bound -, gap -

User-callback calls 66834, time in user-callback 0.29 sec
